NAME : irw2802
COMMENT : Bonn VLSI data set with 2802 points
COMMENT : Uni Bonn, Research Institute for Discrete Math
COMMENT : Contributed by Andre Rohe
TYPE : TSP
DIMENSION : 2802
EDGE_WEIGHT_TYPE : EUC_2D
NODE_COORD_SECTION
1 0 144
2 0 149
3 0 208
4 0 219
5 0 223
6 0 294
7 0 328
8 0 34
9 0 369
10 0 420
11 0 426
12 0 432
13 0 52
14 2 105
15 2 112
16 2 126
17 2 128
18 2 13
19 2 130
20 2 132
21 2 134
22 2 135
23 2 137
24 2 138
25 2 140
26 2 141
27 2 143
28 2 144
29 2 146
30 2 148
31 2 149
32 2 15
33 2 151
34 2 153
35 2 165
36 2 167
37 2 169
38 2 171
39 2 172
40 2 174
41 2 176
42 2 177
43 2 18
44 2 181
45 2 186
46 2 19
47 2 199
48 2 215
49 2 219
50 2 220
51 2 223
52 2 224
53 2 228
54 2 229
55 2 23
56 2 232
57 2 233
58 2 234
59 2 239
60 2 24
61 2 248
62 2 249
63 2 253
64 2 254
65 2 257
66 2 258
67 2 259
68 2 264
69 2 266
70 2 269
71 2 270
72 2 274
73 2 275
74 2 278
75 2 279
76 2 28
77 2 280
78 2 285
79 2 287
80 2 29
81 2 310
82 2 311
83 2 321
84 2 322
85 2 324
86 2 336
87 2 337
88 2 338
89 2 339
90 2 34
91 2 36
92 2 363
93 2 364
94 2 368
95 2 369
96 2 372
97 2 373
98 2 374
99 2 379
100 2 381
101 2 384
102 2 385
103 2 389
104 2 39
105 2 390
106 2 393
107 2 394
108 2 395
109 2 40
110 2 400
111 2 402
112 2 405
113 2 406
114 2 410
115 2 411
116 2 414
117 2 415
118 2 416
119 2 421
120 2 44
121 2 45
122 2 48
123 2 49
124 2 50
125 2 55
126 2 57
127 2 60
128 2 61
129 2 65
130 2 66
131 2 69
132 2 70
133 2 71
134 2 76
135 2 78
136 2 81
137 2 82
138 2 86
139 2 87
140 2 90
141 2 91
142 2 92
143 2 97
144 2 99
145 3 21
146 3 226
147 3 251
148 3 272
149 3 325
150 3 366
151 3 387
152 3 408
153 3 42
154 3 63
155 3 84
156 5 102
157 5 117
158 5 120
159 5 124
160 5 127
161 5 130
162 5 137
163 5 140
164 5 143
165 5 145
166 5 150
167 5 156
168 5 160
169 5 171
170 5 173
171 5 180
172 5 182
173 5 430
174 5 432
175 5 435
176 5 437
177 5 8
178 8 132
179 8 146
180 8 151
181 8 174
182 9 128
183 9 132
184 9 135
185 9 138
186 9 141
187 9 146
188 9 151
189 9 169
190 9 174
191 9 177
192 9 355
193 10 126
194 10 128
195 10 133
196 10 135
197 10 138
198 10 141
199 10 144
200 10 147
201 10 149
202 10 152
203 10 169
204 10 172
205 10 175
206 10 177
207 10 181
208 10 183
209 10 241
210 11 101
211 11 115
212 11 118
213 11 126
214 11 128
215 11 132
216 11 135
217 11 138
218 11 141
219 11 144
220 11 146
221 11 149
222 11 151
223 11 154
224 11 161
225 11 169
226 11 172
227 11 174
228 11 177
229 11 181
230 11 183
231 11 205
232 11 289
233 11 355
234 11 423
235 11 431
236 11 434
237 11 9
238 12 157
239 12 177
240 12 427
241 12 5
242 15 102
243 15 127
244 15 134
245 15 145
246 15 148
247 15 150
248 15 153
249 15 160
250 15 173
251 15 176
252 15 180
253 15 182
254 15 430
255 15 432
256 15 435
257 15 437
258 15 8
259 16 445
260 17 105
261 17 18
262 17 199
263 17 219
264 17 223
265 17 229
266 17 232
267 17 239
268 17 24
269 17 248
270 17 254
271 17 257
272 17 264
273 17 266
274 17 269
275 17 275
276 17 278
277 17 285
278 17 287
279 17 310
280 17 336
281 17 338
282 17 34
283 17 36
284 17 363
285 17 369
286 17 372
287 17 379
288 17 381
289 17 384
290 17 39
291 17 390
292 17 393
293 17 400
294 17 402
295 17 405
296 17 411
297 17 414
298 17 421
299 17 45
300 17 48
301 17 55
302 17 57
303 17 60
304 17 66
305 17 69
306 17 76
307 17 78
308 17 81
309 17 87
310 17 90
311 17 97
312 17 99
313 18 112
314 18 178
315 18 179
316 18 215
317 18 22
318 18 227
319 18 233
320 18 252
321 18 258
322 18 273
323 18 279
324 18 28
325 18 309
326 18 320
327 18 326
328 18 339
329 18 367
330 18 373
331 18 388
332 18 394
333 18 409
334 18 415
335 18 43
336 18 49
337 18 64
338 18 70
339 18 85
340 18 91
341 24 100
342 24 102
343 24 105
344 24 106
345 24 110
346 24 111
347 24 114
348 24 115
349 24 116
350 24 121
351 24 129
352 24 130
353 24 131
354 24 134
355 24 136
356 24 138
357 24 140
358 24 142
359 24 144
360 24 145
361 24 146
362 24 149
363 24 150
364 24 151
365 24 154
366 24 155
367 24 156
368 24 161
369 24 163
370 24 165
371 24 167
372 24 169
373 24 171
374 24 178
375 24 229
376 24 231
377 24 242
378 24 258
379 24 263
380 24 265
381 24 266
382 24 271
383 24 273
384 24 274
385 24 275
386 24 276
387 24 277
388 24 279
389 24 283
390 24 284
391 24 286
392 24 288
393 24 289
394 24 291
395 24 293
396 24 295
397 24 296
398 24 298
399 24 300
400 24 301
401 24 305
402 24 306
403 24 309
404 24 31
405 24 310
406 24 311
407 24 316
408 24 318
409 24 32
410 24 321
411 24 322
412 24 326
413 24 327
414 24 330
415 24 331
416 24 332
417 24 337
418 24 339
419 24 341
420 24 342
421 24 348
422 24 359
423 24 361
424 24 363
425 24 366
426 24 368
427 24 371
428 24 373
429 24 374
430 24 375
431 24 376
432 24 377
433 24 378
434 24 380
435 24 381
436 24 382
437 24 383
438 24 385
439 24 386
440 24 393
441 24 394
442 24 396
443 24 398
444 24 400
445 24 401
446 24 402
447 24 410
448 24 411
449 24 413
450 24 414
451 24 415
452 24 416
453 24 419
454 24 42
455 24 420
456 24 421
457 24 422
458 24 423
459 24 426
460 24 43
461 24 45
462 24 57
463 24 58
464 24 59
465 24 60
466 24 84
467 24 85
468 24 89
469 24 90
470 24 93
471 24 94
472 24 95
473 25 108
474 25 303
475 25 324
476 25 46
477 25 87
478 27 0
479 27 134
480 27 136
481 27 138
482 27 140
483 27 142
484 27 147
485 27 152
486 27 157
487 27 161
488 27 163
489 27 165
490 27 167
491 27 169
492 27 171
493 27 183
494 27 186
495 27 190
496 27 194
497 27 198
498 27 204
499 27 208
500 27 213
501 27 219
502 27 223
503 27 234
504 27 237
505 27 239
506 27 273
507 27 282
508 27 290
509 27 292
510 27 295
511 27 298
512 27 345
513 27 361
514 27 439
515 27 445
516 27 7
517 30 144
518 30 205
519 30 286
520 31 144
521 31 216
522 31 219
523 31 223
524 31 271
525 31 279
526 31 286
527 31 293
528 31 296
529 31 359
530 31 362
531 31 76
532 32 123
533 32 133
534 32 144
535 32 160
536 32 217
537 32 221
538 32 271
539 32 279
540 32 287
541 32 289
542 32 291
543 32 293
544 32 296
545 32 359
546 32 425
547 33 10
548 33 133
549 33 144
550 33 160
551 33 181
552 33 184
553 33 225
554 33 233
555 33 236
556 33 248
557 33 262
558 33 271
559 33 279
560 33 286
561 33 289
562 33 291
563 33 293
564 33 296
565 33 344
566 33 354
567 33 359
568 33 421
569 33 425
570 33 5
571 33 76
572 34 191
573 34 195
574 34 279
575 34 436
576 37 134
577 37 136
578 37 138
579 37 140
580 37 142
581 37 147
582 37 152
583 37 157
584 37 161
585 37 163
586 37 165
587 37 167
588 37 169
589 37 171
590 37 194
591 37 198
592 37 204
593 37 208
594 37 213
595 37 218
596 37 222
597 37 234
598 37 237
599 37 239
600 37 282
601 37 288
602 37 290
603 37 292
604 37 345
605 37 367
606 37 373
607 37 385
608 37 396
609 37 399
610 37 424
611 37 439
612 39 100
613 39 102
614 39 105
615 39 111
616 39 114
617 39 121
618 39 130
619 39 131
620 39 242
621 39 275
622 39 276
623 39 277
624 39 284
625 39 300
626 39 306
627 39 309
628 39 31
629 39 316
630 39 318
631 39 321
632 39 327
633 39 330
634 39 337
635 39 339
636 39 342
637 39 348
638 39 363
639 39 369
640 39 375
641 39 376
642 39 377
643 39 378
644 39 380
645 39 381
646 39 382
647 39 383
648 39 387
649 39 393
650 39 394
651 39 409
652 39 411
653 39 57
654 39 59
655 39 84
656 39 90
657 39 93
658 40 109
659 40 115
660 40 178
661 40 258
662 40 263
663 40 264
664 40 265
665 40 280
666 40 281
667 40 30
668 40 304
669 40 310
670 40 325
671 40 331
672 40 368
673 40 370
674 40 371
675 40 374
676 40 41
677 40 423
678 40 47
679 40 60
680 40 88
681 40 94
682 45 445
683 46 101
684 46 103
685 46 104
686 46 106
687 46 107
688 46 108
689 46 110
690 46 112
691 46 113
692 46 115
693 46 116
694 46 117
695 46 118
696 46 124
697 46 126
698 46 127
699 46 128
700 46 131
701 46 133
702 46 134
703 46 136
704 46 138
705 46 140
706 46 142
707 46 144
708 46 146
709 46 148
710 46 150
711 46 152
712 46 154
713 46 156
714 46 158
715 46 16
716 46 160
717 46 162
718 46 217
719 46 219
720 46 222
721 46 223
722 46 224
723 46 226
724 46 259
725 46 261
726 46 263
727 46 265
728 46 267
729 46 269
730 46 272
731 46 274
732 46 276
733 46 278
734 46 280
735 46 283
736 46 285
737 46 286
738 46 290
739 46 292
740 46 294
741 46 295
742 46 296
743 46 297
744 46 299
745 46 30
746 46 300
747 46 302
748 46 304
749 46 305
750 46 306
751 46 307
752 46 31
753 46 317
754 46 318
755 46 322
756 46 323
757 46 326
758 46 327
759 46 328
760 46 333
761 46 335
762 46 337
763 46 340
764 46 341
765 46 342
766 46 343
767 46 345
768 46 347
769 46 348
770 46 35
771 46 350
772 46 351
773 46 355
774 46 356
775 46 357
776 46 36
777 46 375
778 46 39
779 46 391
780 46 394
781 46 395
782 46 396
783 46 399
784 46 40
785 46 406
786 46 41
787 46 411
788 46 426
789 46 46
790 46 48
791 46 51
792 46 52
793 46 56
794 46 57
795 46 60
796 46 61
797 46 62
798 46 67
799 46 69
800 46 71
801 46 73
802 46 75
803 46 76
804 46 77
805 46 79
806 46 81
807 46 82
808 46 89
809 46 9
810 46 91
811 46 93
812 46 97
813 46 98
814 46 99
815 47 320
816 47 33
817 47 54
818 49 103
819 49 106
820 49 112
821 49 121
822 49 133
823 49 135
824 49 138
825 49 141
826 49 145
827 49 149
828 49 153
829 49 157
830 49 161
831 49 168
832 49 176
833 49 184
834 49 192
835 49 200
836 49 208
837 49 21
838 49 231
839 49 235
840 49 239
841 49 24
842 49 244
843 49 250
844 49 254
845 49 259
846 49 261
847 49 263
848 49 265
849 49 267
850 49 269
851 49 272
852 49 274
853 49 276
854 49 278
855 49 28
856 49 280
857 49 285
858 49 289
859 49 292
860 49 303
861 49 311
862 49 315
863 49 338
864 49 347
865 49 350
866 49 354
867 49 361
868 49 365
869 49 367
870 49 370
871 49 372
872 49 412
873 49 416
874 49 418
875 49 421
876 49 423
877 49 438
878 49 6
879 49 72
880 49 74
881 49 81
882 49 85
883 49 88
884 49 90
885 49 92
886 49 96
887 52 113
888 52 164
889 52 170
890 52 178
891 52 186
892 52 194
893 52 202
894 52 210
895 52 236
896 53 0
897 53 101
898 53 104
899 53 110
900 53 113
901 53 131
902 53 136
903 53 139
904 53 164
905 53 170
906 53 178
907 53 186
908 53 194
909 53 202
910 53 210
911 53 247
912 53 250
913 53 254
914 53 283
915 53 286
916 53 290
917 53 345
918 53 348
919 53 351
920 53 445
921 53 79
922 53 82
923 53 93
924 54 101
925 54 104
926 54 110
927 54 114
928 54 131
929 54 134
930 54 136
931 54 139
932 54 164
933 54 170
934 54 178
935 54 186
936 54 194
937 54 202
938 54 210
939 54 248
940 54 252
941 54 258
942 54 271
943 54 283
944 54 286
945 54 290
946 54 302
947 54 337
948 54 345
949 54 348
950 54 351
951 54 411
952 54 425
953 54 71
954 54 73
955 54 79
956 54 82
957 54 89
958 54 91
959 54 93
960 55 101
961 55 104
962 55 110
963 55 113
964 55 120
965 55 131
966 55 134
967 55 136
968 55 139
969 55 164
970 55 171
971 55 179
972 55 187
973 55 19
974 55 195
975 55 203
976 55 211
977 55 213
978 55 22
979 55 229
980 55 258
981 55 271
982 55 283
983 55 286
984 55 290
985 55 302
986 55 309
987 55 337
988 55 345
989 55 348
990 55 351
991 55 359
992 55 366
993 55 369
994 55 381
995 55 411
996 55 417
997 55 420
998 55 425
999 55 436
1000 55 5
1001 55 71
1002 55 73
1003 55 79
1004 55 82
1005 55 86
1006 55 89
1007 55 91
1008 55 93
1009 56 164
1010 56 232
1011 56 286
1012 56 312
1013 56 351
1014 56 362
1015 56 413
1016 56 82
1017 56 93
1018 59 115
1019 59 121
1020 59 135
1021 59 235
1022 59 239
1023 59 244
1024 59 249
1025 59 253
1026 59 259
1027 59 261
1028 59 263
1029 59 265
1030 59 267
1031 59 269
1032 59 272
1033 59 274
1034 59 276
1035 59 278
1036 59 280
1037 59 289
1038 59 303
1039 59 315
1040 59 338
1041 59 354
1042 59 365
1043 59 367
1044 59 370
1045 59 372
1046 59 412
1047 59 416
1048 59 418
1049 59 421
1050 59 423
1051 59 6
1052 59 72
1053 59 74
1054 59 85
1055 59 90
1056 59 92
1057 59 96
1058 61 108
1059 61 117
1060 61 118
1061 61 124
1062 61 127
1063 61 128
1064 61 294
1065 61 295
1066 61 296
1067 61 297
1068 61 30
1069 61 300
1070 61 305
1071 61 306
1072 61 307
1073 61 317
1074 61 323
1075 61 326
1076 61 333
1077 61 335
1078 61 340
1079 61 341
1080 61 342
1081 61 343
1082 61 356
1083 61 357
1084 61 36
1085 61 375
1086 61 39
1087 61 395
1088 61 399
1089 61 46
1090 61 48
1091 61 51
1092 61 57
1093 61 60
1094 61 67
1095 61 69
1096 61 76
1097 61 77
1098 61 9
1099 61 98
1100 61 99
1101 62 16
1102 62 166
1103 62 168
1104 62 170
1105 62 174
1106 62 176
1107 62 178
1108 62 182
1109 62 184
1110 62 186
1111 62 190
1112 62 192
1113 62 194
1114 62 198
1115 62 200
1116 62 202
1117 62 206
1118 62 208
1119 62 210
1120 62 226
1121 62 287
1122 62 288
1123 62 321
1124 62 327
1125 62 34
1126 62 352
1127 62 353
1128 62 391
1129 62 396
1130 62 40
1131 62 406
1132 62 445
1133 62 55
1134 62 61
1135 62 83
1136 62 84
1137 62 94
1138 62 95
1139 68 111
1140 68 113
1141 68 116
1142 68 117
1143 68 119
1144 68 121
1145 68 123
1146 68 126
1147 68 128
1148 68 13
1149 68 130
1150 68 132
1151 68 134
1152 68 136
1153 68 138
1154 68 139
1155 68 140
1156 68 143
1157 68 144
1158 68 145
1159 68 148
1160 68 149
1161 68 150
1162 68 18
1163 68 19
1164 68 219
1165 68 221
1166 68 223
1167 68 224
1168 68 225
1169 68 227
1170 68 229
1171 68 23
1172 68 231
1173 68 234
1174 68 236
1175 68 239
1176 68 24
1177 68 241
1178 68 242
1179 68 243
1180 68 244
1181 68 245
1182 68 246
1183 68 248
1184 68 249
1185 68 250
1186 68 251
1187 68 253
1188 68 254
1189 68 261
1190 68 262
1191 68 264
1192 68 266
1193 68 268
1194 68 269
1195 68 27
1196 68 270
1197 68 278
1198 68 279
1199 68 28
1200 68 281
1201 68 282
1202 68 283
1203 68 284
1204 68 287
1205 68 288
1206 68 289
1207 68 29
1208 68 290
1209 68 291
1210 68 293
1211 68 295
1212 68 299
1213 68 339
1214 68 34
1215 68 342
1216 68 344
1217 68 347
1218 68 349
1219 68 350
1220 68 351
1221 68 352
1222 68 353
1223 68 354
1224 68 356
1225 68 357
1226 68 358
1227 68 359
1228 68 36
1229 68 361
1230 68 362
1231 68 369
1232 68 370
1233 68 372
1234 68 374
1235 68 376
1236 68 377
1237 68 378
1238 68 386
1239 68 387
1240 68 389
1241 68 39
1242 68 390
1243 68 391
1244 68 392
1245 68 395
1246 68 396
1247 68 397
1248 68 398
1249 68 399
1250 68 40
1251 68 405
1252 68 421
1253 68 425
1254 68 426
1255 68 436
1256 68 438
1257 68 44
1258 68 45
1259 68 48
1260 68 49
1261 68 50
1262 68 55
1263 68 57
1264 68 6
1265 68 60
1266 68 61
1267 68 65
1268 68 66
1269 68 69
1270 68 70
1271 68 71
1272 68 76
1273 68 78
1274 68 97
1275 68 99
1276 69 21
1277 69 42
1278 69 445
1279 69 63
1280 70 445
1281 71 102
1282 71 105
1283 71 107
1284 71 113
1285 71 126
1286 71 128
1287 71 130
1288 71 132
1289 71 134
1290 71 136
1291 71 141
1292 71 146
1293 71 151
1294 71 158
1295 71 166
1296 71 174
1297 71 182
1298 71 190
1299 71 198
1300 71 205
1301 71 209
1302 71 213
1303 71 229
1304 71 294
1305 71 298
1306 71 300
1307 71 304
1308 71 310
1309 71 316
1310 71 322
1311 71 328
1312 71 334
1313 71 402
1314 71 431
1315 71 445
1316 71 83
1317 71 87
1318 71 91
1319 74 138
1320 74 154
1321 74 160
1322 74 168
1323 74 176
1324 74 184
1325 74 192
1326 74 200
1327 75 111
1328 75 138
1329 75 154
1330 75 160
1331 75 168
1332 75 176
1333 75 184
1334 75 192
1335 75 200
1336 75 206
1337 75 209
1338 75 213
1339 75 227
1340 75 230
1341 75 295
1342 75 301
1343 75 338
1344 75 84
1345 75 87
1346 75 91
1347 76 111
1348 76 125
1349 76 138
1350 76 154
1351 76 160
1352 76 168
1353 76 176
1354 76 184
1355 76 192
1356 76 200
1357 76 207
1358 76 211
1359 76 227
1360 76 293
1361 76 295
1362 76 299
1363 76 301
1364 76 85
1365 76 89
1366 77 101
1367 77 104
1368 77 111
1369 77 121
1370 77 125
1371 77 138
1372 77 154
1373 77 161
1374 77 169
1375 77 177
1376 77 185
1377 77 193
1378 77 201
1379 77 203
1380 77 215
1381 77 227
1382 77 289
1383 77 293
1384 77 295
1385 77 299
1386 77 301
1387 77 397
1388 77 401
1389 77 411
1390 77 432
1391 77 93
1392 78 154
1393 78 295
1394 78 301
1395 78 428
1396 78 80
1397 81 102
1398 81 105
1399 81 107
1400 81 126
1401 81 128
1402 81 130
1403 81 132
1404 81 134
1405 81 136
1406 81 141
1407 81 146
1408 81 151
1409 81 208
1410 81 212
1411 81 235
1412 81 241
1413 81 253
1414 81 264
1415 81 267
1416 81 292
1417 81 294
1418 81 298
1419 81 300
1420 81 304
1421 81 310
1422 81 316
1423 81 322
1424 81 328
1425 81 334
1426 81 343
1427 81 349
1428 81 361
1429 81 372
1430 81 375
1431 81 400
1432 81 402
1433 81 431
1434 81 445
1435 81 83
1436 81 86
1437 81 90
1438 83 117
1439 83 118
1440 83 119
1441 83 18
1442 83 224
1443 83 225
1444 83 231
1445 83 237
1446 83 24
1447 83 243
1448 83 244
1449 83 245
1450 83 246
1451 83 248
1452 83 249
1453 83 250
1454 83 251
1455 83 255
1456 83 261
1457 83 262
1458 83 27
1459 83 277
1460 83 279
1461 83 339
1462 83 34
1463 83 345
1464 83 351
1465 83 352
1466 83 353
1467 83 354
1468 83 356
1469 83 357
1470 83 358
1471 83 359
1472 83 36
1473 83 363
1474 83 369
1475 83 370
1476 83 385
1477 83 387
1478 83 39
1479 83 405
1480 83 426
1481 83 45
1482 83 48
1483 83 55
1484 83 57
1485 83 6
1486 83 60
1487 83 66
1488 83 69
1489 83 76
1490 83 78
1491 84 13
1492 84 156
1493 84 158
1494 84 160
1495 84 164
1496 84 166
1497 84 168
1498 84 172
1499 84 174
1500 84 176
1501 84 180
1502 84 182
1503 84 184
1504 84 188
1505 84 190
1506 84 192
1507 84 196
1508 84 198
1509 84 200
1510 84 22
1511 84 236
1512 84 238
1513 84 239
1514 84 242
1515 84 28
1516 84 291
1517 84 296
1518 84 297
1519 84 302
1520 84 304
1521 84 306
1522 84 308
1523 84 310
1524 84 312
1525 84 314
1526 84 316
1527 84 318
1528 84 320
1529 84 322
1530 84 324
1531 84 326
1532 84 328
1533 84 330
1534 84 332
1535 84 333
1536 84 335
1537 84 336
1538 84 344
1539 84 346
1540 84 347
1541 84 350
1542 84 399
1543 84 421
1544 84 43
1545 84 49
1546 84 64
1547 84 70
1548 90 101
1549 90 102
1550 90 103
1551 90 105
1552 90 107
1553 90 108
1554 90 110
1555 90 111
1556 90 112
1557 90 113
1558 90 115
1559 90 120
1560 90 122
1561 90 124
1562 90 126
1563 90 128
1564 90 143
1565 90 145
1566 90 149
1567 90 150
1568 90 151
1569 90 160
1570 90 161
1571 90 164
1572 90 171
1573 90 174
1574 90 176
1575 90 181
1576 90 182
1577 90 183
1578 90 184
1579 90 186
1580 90 188
1581 90 189
1582 90 190
1583 90 191
1584 90 193
1585 90 195
1586 90 196
1587 90 198
1588 90 199
1589 90 200
1590 90 22
1591 90 230
1592 90 232
1593 90 234
1594 90 242
1595 90 249
1596 90 263
1597 90 264
1598 90 265
1599 90 267
1600 90 269
1601 90 270
1602 90 274
1603 90 278
1604 90 283
1605 90 286
1606 90 288
1607 90 291
1608 90 293
1609 90 294
1610 90 295
1611 90 296
1612 90 297
1613 90 298
1614 90 300
1615 90 301
1616 90 302
1617 90 303
1618 90 305
1619 90 306
1620 90 313
1621 90 314
1622 90 316
1623 90 318
1624 90 320
1625 90 321
1626 90 322
1627 90 330
1628 90 331
1629 90 333
1630 90 334
1631 90 335
1632 90 336
1633 90 339
1634 90 340
1635 90 341
1636 90 342
1637 90 343
1638 90 345
1639 90 347
1640 90 348
1641 90 351
1642 90 352
1643 90 355
1644 90 356
1645 90 359
1646 90 36
1647 90 365
1648 90 37
1649 90 41
1650 90 416
1651 90 418
1652 90 42
1653 90 420
1654 90 422
1655 90 424
1656 90 425
1657 90 426
1658 90 428
1659 90 429
1660 90 45
1661 90 46
1662 90 47
1663 90 52
1664 90 54
1665 90 57
1666 90 58
1667 90 6
1668 90 62
1669 90 63
1670 90 66
1671 90 67
1672 90 68
1673 90 73
1674 90 75
1675 90 77
1676 90 78
1677 90 91
1678 90 93
1679 90 94
1680 90 95
1681 90 96
1682 90 99
1683 91 39
1684 91 60
1685 93 101
1686 93 110
1687 93 118
1688 93 120
1689 93 122
1690 93 124
1691 93 126
1692 93 128
1693 93 133
1694 93 137
1695 93 159
1696 93 176
1697 93 178
1698 93 187
1699 93 195
1700 93 197
1701 93 205
1702 93 209
1703 93 214
1704 93 220
1705 93 224
1706 93 237
1707 93 239
1708 93 254
1709 93 257
1710 93 261
1711 93 269
1712 93 27
1713 93 273
1714 93 277
1715 93 281
1716 93 30
1717 93 34
1718 93 348
1719 93 352
1720 93 356
1721 93 370
1722 93 373
1723 93 377
1724 93 381
1725 93 385
1726 93 391
1727 93 395
1728 93 400
1729 93 406
1730 93 410
1731 93 421
1732 93 424
1733 93 82
1734 93 84
1735 93 87
1736 93 89
1737 93 93
1738 96 105
1739 96 206
1740 96 345
1741 96 392
1742 96 445
1743 97 105
1744 97 108
1745 97 115
1746 97 130
1747 97 133
1748 97 137
1749 97 148
1750 97 174
1751 97 193
1752 97 217
1753 97 220
1754 97 224
1755 97 234
1756 97 267
1757 97 270
1758 97 274
1759 97 278
1760 97 282
1761 97 345
1762 97 348
1763 97 352
1764 97 356
1765 97 403
1766 97 406
1767 97 410
1768 97 422
1769 97 91
1770 97 99
1771 98 106
1772 98 108
1773 98 115
1774 98 119
1775 98 131
1776 98 135
1777 98 174
1778 98 186
1779 98 193
1780 98 196
1781 98 218
1782 98 222
1783 98 234
1784 98 267
1785 98 270
1786 98 274
1787 98 278
1788 98 346
1789 98 350
1790 98 354
1791 98 358
1792 98 404
1793 98 408
1794 98 420
1795 98 422
1796 98 445
1797 98 91
1798 98 99
1799 99 105
1800 99 108
1801 99 115
1802 99 119
1803 99 12
1804 99 139
1805 99 152
1806 99 157
1807 99 174
1808 99 177
1809 99 186
1810 99 193
1811 99 196
1812 99 226
1813 99 234
1814 99 238
1815 99 25
1816 99 252
1817 99 255
1818 99 267
1819 99 270
1820 99 274
1821 99 278
1822 99 28
1823 99 341
1824 99 345
1825 99 368
1826 99 371
1827 99 412
1828 99 420
1829 99 422
1830 99 435
1831 99 80
1832 99 83
1833 99 86
1834 99 91
1835 99 99
1836 100 115
1837 100 202
1838 100 234
1839 100 270
1840 100 274
1841 100 278
1842 100 378
1843 100 382
1844 103 107
1845 103 118
1846 103 120
1847 103 122
1848 103 124
1849 103 126
1850 103 128
1851 103 132
1852 103 136
1853 103 178
1854 103 187
1855 103 197
1856 103 205
1857 103 209
1858 103 214
1859 103 219
1860 103 223
1861 103 237
1862 103 239
1863 103 273
1864 103 277
1865 103 281
1866 103 287
1867 103 293
1868 103 305
1869 103 316
1870 103 319
1871 103 344
1872 103 347
1873 103 351
1874 103 355
1875 103 359
1876 103 381
1877 103 385
1878 103 391
1879 103 395
1880 103 400
1881 103 405
1882 103 409
1883 103 421
1884 103 84
1885 103 87
1886 103 89
1887 104 445
1888 105 103
1889 105 112
1890 105 113
1891 105 161
1892 105 164
1893 105 182
1894 105 183
1895 105 184
1896 105 189
1897 105 190
1898 105 191
1899 105 199
1900 105 200
1901 105 242
1902 105 264
1903 105 265
1904 105 283
1905 105 289
1906 105 295
1907 105 296
1908 105 297
1909 105 298
1910 105 300
1911 105 301
1912 105 302
1913 105 303
1914 105 307
1915 105 313
1916 105 314
1917 105 329
1918 105 331
1919 105 36
1920 105 42
1921 105 426
1922 105 429
1923 105 45
1924 105 52
1925 105 54
1926 105 57
1927 105 6
1928 105 63
1929 105 66
1930 105 73
1931 105 75
1932 105 78
1933 105 95
1934 105 96
1935 106 116
1936 106 117
1937 106 171
1938 106 22
1939 106 235
1940 106 236
1941 106 249
1942 106 271
1943 106 272
1944 106 275
1945 106 276
1946 106 279
1947 106 280
1948 106 288
1949 106 290
1950 106 291
1951 106 294
1952 106 343
1953 106 365
1954 106 40
1955 106 46
1956 106 61
1957 106 67
1958 107 445
1959 108 0
1960 108 445
1961 109 445
1962 112 105
1963 112 106
1964 112 11
1965 112 110
1966 112 111
1967 112 114
1968 112 115
1969 112 116
1970 112 12
1971 112 121
1972 112 123
1973 112 125
1974 112 127
1975 112 129
1976 112 143
1977 112 145
1978 112 157
1979 112 159
1980 112 16
1981 112 160
1982 112 162
1983 112 164
1984 112 167
1985 112 169
1986 112 17
1987 112 172
1988 112 174
1989 112 175
1990 112 176
1991 112 177
1992 112 178
1993 112 179
1994 112 181
1995 112 182
1996 112 183
1997 112 184
1998 112 186
1999 112 187
2000 112 194
2001 112 195
2002 112 197
2003 112 199
2004 112 20
2005 112 201
2006 112 202
2007 112 203
2008 112 21
2009 112 211
2010 112 212
2011 112 214
2012 112 215
2013 112 216
2014 112 217
2015 112 22
2016 112 220
2017 112 221
2018 112 222
2019 112 223
2020 112 224
2021 112 227
2022 112 230
2023 112 232
2024 112 235
2025 112 237
2026 112 238
2027 112 239
2028 112 240
2029 112 241
2030 112 242
2031 112 244
2032 112 245
2033 112 246
2034 112 247
2035 112 249
2036 112 250
2037 112 257
2038 112 258
2039 112 260
2040 112 262
2041 112 264
2042 112 265
2043 112 266
2044 112 27
2045 112 274
2046 112 275
2047 112 277
2048 112 278
2049 112 279
2050 112 280
2051 112 283
2052 112 284
2053 112 285
2054 112 286
2055 112 287
2056 112 29
2057 112 290
2058 112 293
2059 112 295
2060 112 298
2061 112 300
2062 112 301
2063 112 302
2064 112 303
2065 112 304
2066 112 305
2067 112 307
2068 112 308
2069 112 309
2070 112 310
2071 112 312
2072 112 313
2073 112 320
2074 112 321
2075 112 323
2076 112 325
2077 112 327
2078 112 328
2079 112 329
2080 112 337
2081 112 338
2082 112 340
2083 112 341
2084 112 342
2085 112 343
2086 112 346
2087 112 347
2088 112 348
2089 112 349
2090 112 350
2091 112 366
2092 112 406
2093 112 417
2094 112 419
2095 112 420
2096 112 421
2097 112 422
2098 112 424
2099 112 425
2100 112 426
2101 112 429
2102 112 430
2103 112 433
2104 112 434
2105 112 445
2106 112 52
2107 112 53
2108 112 6
2109 112 63
2110 112 64
2111 112 66
2112 112 78
2113 112 79
2114 112 80
2115 112 81
2116 113 108
2117 113 14
2118 113 67
2119 115 126
2120 115 129
2121 115 133
2122 115 137
2123 115 148
2124 115 151
2125 115 153
2126 115 159
2127 115 162
2128 115 371
2129 115 374
2130 115 378
2131 115 382
2132 115 386
2133 115 392
2134 115 396
2135 115 401
2136 115 407
2137 115 409
2138 115 412
2139 115 414
2140 115 439
2141 118 393
2142 119 127
2143 119 130
2144 119 133
2145 119 137
2146 119 157
2147 119 160
2148 119 163
2149 119 226
2150 119 289
2151 119 97
2152 120 125
2153 120 127
2154 120 131
2155 120 135
2156 120 157
2157 120 160
2158 120 406
2159 120 445
2160 121 125
2161 121 127
2162 121 139
2163 121 147
2164 121 150
2165 121 157
2166 121 160
2167 121 222
2168 121 285
2169 121 31
2170 121 348
2171 121 356
2172 121 369
2173 121 372
2174 121 406
2175 121 408
2176 121 411
2177 121 97
2178 122 379
2179 122 383
2180 122 436
2181 125 126
2182 125 132
2183 125 136
2184 125 148
2185 125 151
2186 125 153
2187 125 168
2188 125 174
2189 125 186
2190 125 197
2191 125 200
2192 125 225
2193 125 231
2194 125 237
2195 125 249
2196 125 260
2197 125 263
2198 125 288
2199 125 294
2200 125 300
2201 125 312
2202 125 323
2203 125 326
2204 125 351
2205 125 382
2206 125 386
2207 125 392
2208 125 396
2209 125 401
2210 125 407
2211 125 409
2212 125 412
2213 125 414
2214 125 439
2215 127 105
2216 127 11
2217 127 111
2218 127 114
2219 127 121
2220 127 123
2221 127 164
2222 127 17
2223 127 170
2224 127 176
2225 127 177
2226 127 178
2227 127 179
2228 127 181
2229 127 182
2230 127 183
2231 127 184
2232 127 188
2233 127 194
2234 127 195
2235 127 20
2236 127 210
2237 127 212
2238 127 227
2239 127 233
2240 127 239
2241 127 240
2242 127 241
2243 127 242
2244 127 244
2245 127 245
2246 127 246
2247 127 247
2248 127 251
2249 127 257
2250 127 258
2251 127 27
2252 127 273
2253 127 275
2254 127 29
2255 127 290
2256 127 296
2257 127 302
2258 127 303
2259 127 304
2260 127 305
2261 127 307
2262 127 308
2263 127 309
2264 127 310
2265 127 314
2266 127 320
2267 127 321
2268 127 336
2269 127 338
2270 127 417
2271 127 420
2272 127 421
2273 127 422
2274 127 425
2275 127 426
2276 127 430
2277 127 433
2278 127 434
2279 127 52
2280 127 6
2281 127 78
2282 127 80
2283 128 109
2284 128 115
2285 128 15
2286 128 169
2287 128 171
2288 128 172
2289 128 175
2290 128 21
2291 128 224
2292 128 232
2293 128 234
2294 128 235
2295 128 238
2296 128 287
2297 128 295
2298 128 297
2299 128 298
2300 128 301
2301 128 350
2302 128 366
2303 128 445
2304 128 51
2305 128 62
2306 128 68
2307 128 81
2308 134 103
2309 134 105
2310 134 106
2311 134 107
2312 134 109
2313 134 11
2314 134 110
2315 134 111
2316 134 115
2317 134 117
2318 134 119
2319 134 12
2320 134 120
2321 134 122
2322 134 124
2323 134 125
2324 134 127
2325 134 152
2326 134 154
2327 134 158
2328 134 159
2329 134 16
2330 134 160
2331 134 162
2332 134 164
2333 134 17
2334 134 175
2335 134 177
2336 134 181
2337 134 185
2338 134 187
2339 134 188
2340 134 190
2341 134 191
2342 134 193
2343 134 195
2344 134 196
2345 134 197
2346 134 198
2347 134 20
2348 134 21
2349 134 22
2350 134 220
2351 134 222
2352 134 233
2353 134 249
2354 134 268
2355 134 27
2356 134 271
2357 134 273
2358 134 276
2359 134 278
2360 134 279
2361 134 280
2362 134 281
2363 134 282
2364 134 283
2365 134 285
2366 134 286
2367 134 287
2368 134 288
2369 134 29
2370 134 290
2371 134 291
2372 134 298
2373 134 299
2374 134 301
2375 134 303
2376 134 305
2377 134 306
2378 134 307
2379 134 315
2380 134 316
2381 134 318
2382 134 319
2383 134 32
2384 134 320
2385 134 321
2386 134 324
2387 134 325
2388 134 326
2389 134 327
2390 134 328
2391 134 33
2392 134 331
2393 134 334
2394 134 336
2395 134 341
2396 134 343
2397 134 348
2398 134 350
2399 134 355
2400 134 357
2401 134 362
2402 134 369
2403 134 37
2404 134 372
2405 134 373
2406 134 374
2407 134 377
2408 134 378
2409 134 38
2410 134 380
2411 134 382
2412 134 383
2413 134 384
2414 134 385
2415 134 391
2416 134 392
2417 134 393
2418 134 400
2419 134 404
2420 134 405
2421 134 408
2422 134 41
2423 134 411
2424 134 414
2425 134 418
2426 134 419
2427 134 42
2428 134 428
2429 134 43
2430 134 430
2431 134 432
2432 134 433
2433 134 439
2434 134 445
2435 134 48
2436 134 50
2437 134 53
2438 134 54
2439 134 58
2440 134 59
2441 134 62
2442 134 63
2443 134 64
2444 134 69
2445 134 71
2446 134 74
2447 134 75
2448 134 79
2449 134 80
2450 134 83
2451 134 84
2452 134 85
2453 134 90
2454 134 92
2455 134 94
2456 134 95
2457 134 96
2458 134 97
2459 134 99
2460 135 0
2461 135 14
2462 135 35
2463 135 445
2464 135 56
2465 135 77
2466 136 445
2467 137 102
2468 137 104
2469 137 116
2470 137 119
2471 137 121
2472 137 124
2473 137 127
2474 137 131
2475 137 136
2476 137 142
2477 137 146
2478 137 164
2479 137 168
2480 137 174
2481 137 176
2482 137 180
2483 137 184
2484 137 187
2485 137 192
2486 137 195
2487 137 202
2488 137 206
2489 137 210
2490 137 214
2491 137 225
2492 137 228
2493 137 230
2494 137 254
2495 137 257
2496 137 261
2497 137 265
2498 137 336
2499 137 338
2500 137 343
2501 137 347
2502 137 350
2503 137 353
2504 137 357
2505 137 359
2506 137 382
2507 137 389
2508 137 412
2509 137 415
2510 137 423
2511 137 436
2512 137 7
2513 140 128
2514 140 188
2515 141 117
2516 141 122
2517 141 125
2518 141 139
2519 141 142
2520 141 146
2521 141 162
2522 141 177
2523 141 181
2524 141 185
2525 141 188
2526 141 193
2527 141 207
2528 141 210
2529 141 214
2530 141 267
2531 141 334
2532 141 341
2533 141 348
2534 141 355
2535 141 380
2536 141 99
2537 142 103
2538 142 115
2539 142 117
2540 142 120
2541 142 122
2542 142 125
2543 142 140
2544 142 144
2545 142 162
2546 142 175
2547 142 177
2548 142 181
2549 142 185
2550 142 189
2551 142 191
2552 142 193
2553 142 208
2554 142 212
2555 142 334
2556 142 341
2557 142 348
2558 142 355
2559 142 380
2560 142 411
2561 142 414
2562 142 99
2563 143 103
2564 143 115
2565 143 117
2566 143 120
2567 143 122
2568 143 125
2569 143 148
2570 143 162
2571 143 175
2572 143 177
2573 143 181
2574 143 185
2575 143 188
2576 143 191
2577 143 193
2578 143 200
2579 143 216
2580 143 224
2581 143 227
2582 143 239
2583 143 252
2584 143 255
2585 143 326
2586 143 334
2587 143 337
2588 143 341
2589 143 348
2590 143 351
2591 143 355
2592 143 358
2593 143 380
2594 143 387
2595 143 411
2596 143 414
2597 143 421
2598 143 424
2599 143 435
2600 143 5
2601 143 99
2602 144 165
2603 144 177
2604 144 181
2605 144 203
2606 144 262
2607 144 344
2608 144 99
2609 147 102
2610 147 104
2611 147 116
2612 147 121
2613 147 131
2614 147 136
2615 147 141
2616 147 145
2617 147 168
2618 147 174
2619 147 176
2620 147 180
2621 147 184
2622 147 190
2623 147 192
2624 147 206
2625 147 209
2626 147 213
2627 147 225
2628 147 228
2629 147 230
2630 147 265
2631 147 272
2632 147 278
2633 147 290
2634 147 301
2635 147 304
2636 147 329
2637 147 338
2638 147 347
2639 147 359
2640 147 412
2641 147 415
2642 147 436
2643 149 106
2644 149 107
2645 149 11
2646 149 110
2647 149 111
2648 149 159
2649 149 160
2650 149 17
2651 149 197
2652 149 198
2653 149 20
2654 149 233
2655 149 268
2656 149 27
2657 149 274
2658 149 280
2659 149 281
2660 149 282
2661 149 283
2662 149 285
2663 149 286
2664 149 287
2665 149 288
2666 149 29
2667 149 292
2668 149 298
2669 149 299
2670 149 314
2671 149 316
2672 149 32
2673 149 331
2674 149 362
2675 149 373
2676 149 374
2677 149 378
2678 149 38
2679 149 384
2680 149 385
2681 149 391
2682 149 392
2683 149 393
2684 149 405
2685 149 408
2686 149 41
2687 149 419
2688 149 433
2689 149 439
2690 149 48
2691 149 50
2692 149 53
2693 149 59
2694 149 62
2695 149 69
2696 149 71
2697 149 74
2698 149 80
2699 149 83
2700 149 90
2701 149 92
2702 149 95
2703 149 96
2704 149 97
2705 150 100
2706 150 101
2707 150 15
2708 150 178
2709 150 179
2710 150 182
2711 150 183
2712 150 21
2713 150 249
2714 150 273
2715 150 275
2716 150 276
2717 150 279
2718 150 328
2719 150 36
2720 150 369
2721 150 400
2722 150 42
2723 150 57
2724 150 63
2725 150 78
2726 150 84
2727 153 102
2728 153 108
2729 153 114
2730 153 12
2731 153 120
2732 153 126
2733 153 132
2734 153 138
2735 153 144
2736 153 150
2737 153 156
2738 153 162
2739 153 168
2740 153 174
2741 153 18
2742 153 180
2743 153 186
2744 153 190
2745 153 192
2746 153 198
2747 153 204
2748 153 210
2749 153 216
2750 153 222
2751 153 228
2752 153 234
2753 153 24
2754 153 240
2755 153 246
2756 153 252
2757 153 258
2758 153 264
2759 153 270
2760 153 276
2761 153 282
2762 153 288
2763 153 294
2764 153 30
2765 153 300
2766 153 306
2767 153 312
2768 153 318
2769 153 324
2770 153 328
2771 153 336
2772 153 342
2773 153 348
2774 153 354
2775 153 36
2776 153 360
2777 153 366
2778 153 372
2779 153 378
2780 153 379
2781 153 384
2782 153 390
2783 153 396
2784 153 402
2785 153 408
2786 153 414
2787 153 42
2788 153 420
2789 153 422
2790 153 426
2791 153 432
2792 153 438
2793 153 48
2794 153 54
2795 153 6
2796 153 60
2797 153 66
2798 153 72
2799 153 78
2800 153 84
2801 153 90
2802 153 96
EOF
